# Solution for model r5_t9_m6_8
# Finished Task: 9 / 9
# Makespan: 515.0, Total Distance: 334.0, Total Time: 0.0261
# R O S F
0 0 8 0.0 0.0
1 1 13 0.0 0.0
2 2 6 0.0 0.0
3 3 7 0.0 0.0
4 4 12 0.0 0.0
5 1 9 383.0 408.0
6 2 -1 408.0 439.0
7 3 -1 439.0 472.0
8 0 10 346.0 383.0
9 1 -1 472.0 509.0
10 0 11 439.0 476.0
11 0 -1 476.0 515.0
12 4 -1 408.0 432.0
13 1 5 89.0 125.0
